p cnf 495 1536
c ind 409 441 436 437 420 455 439 431 434 410 0
c ind 418 421 424 429 416 430 407 412 423 432 0
c ind 435 443 449 414 415 417 422 426 428 459 0
c ind 475 481 411 413 489 408 419 425 427 433 0
c ind 479 457 463 471 473 487 447 493 451 465 0
c ind 445 477 467 483 461 485 453 491 469 440 0
c ind 492 448 464 480 490 462 486 454 442 450 0
c ind 458 470 478 482 438 444 452 468 484 456 0
c ind 488 446 466 474 472 476 460 1 0
c ret 343 344 345 346 347 348 349 350 351 352 0
c ret 353 354 355 356 357 358 359 360 361 362 0
c ret 363 364 365 366 367 368 369 370 371 372 0
c ret 373 374 375 376 377 378 379 380 381 382 0
c ret 383 384 385 386 387 388 389 390 391 392 0
c ret 393 394 395 396 397 398 399 400 401 402 0
c ret 403 404 405 406 0
2 -3 -107 -135 -159 0
-2 159 0
-2 3 0
-2 135 0
-2 107 0
3 -4 -42 -64 -82 0
-3 82 0
-3 4 0
-3 64 0
-3 42 0
4 -5 -24 -34 -38 0
-4 38 0
-4 5 0
-4 34 0
-4 24 0
5 -6 16 18 -20 0
-5 20 0
-5 -18 0
-5 6 0
-5 -16 0
6 7 10 -11 0
6 7 -11 -385 0
-6 11 0
-6 -7 0
-6 -10 385 0
7 -8 349 0
-7 -349 0
-7 8 0
8 9 -350 0
-8 350 0
-8 -9 0
9 -411 -444 0
9 411 444 0
-9 411 -444 0
-9 -411 444 0
10 -386 429 -480 0
10 -386 -429 480 0
-10 386 0
-10 -429 -480 0
-10 429 480 0
11 13 15 0
11 12 -441 0
11 12 15 0
11 13 -441 0
-11 -12 -13 0
-11 -15 441 0
12 401 -402 0
12 -401 402 0
-12 -401 -402 0
-12 401 402 0
13 -14 -437 0
13 14 437 0
-13 -14 437 0
-13 14 -437 0
14 -403 -404 0
-14 403 0
-14 404 0
15 347 -348 442 0
15 -347 348 442 0
-15 -442 0
-15 347 348 0
-15 -347 -348 0
16 -17 452 0
16 359 452 453 0
-16 -452 0
-16 17 -359 0
-16 17 -453 0
17 -357 358 451 0
-17 357 0
-17 -451 0
-17 -358 0
18 -19 484 0
18 391 484 485 0
-18 -484 0
-18 19 -391 0
-18 19 -485 0
19 -389 390 483 0
-19 389 0
-19 -483 0
-19 -390 0
20 -21 -405 0
20 23 -468 0
20 -405 -468 0
20 -21 23 0
-20 -23 405 0
-20 21 468 0
21 -467 -469 0
21 22 -375 0
21 -375 -467 0
21 22 -469 0
-21 -22 467 0
-21 375 469 0
22 -373 374 0
-22 373 0
-22 -374 0
23 -406 407 -492 0
23 -406 -407 492 0
-23 406 0
-23 -407 -492 0
-23 407 492 0
24 25 28 -29 0
24 25 -29 -405 0
-24 29 0
-24 -25 0
-24 -28 405 0
25 -26 -493 0
25 -26 -27 0
-25 26 0
-25 27 493 0
26 -343 -344 0
26 343 344 0
-26 343 -344 0
-26 -343 344 0
27 -408 -438 0
27 408 438 0
-27 408 -438 0
-27 -408 438 0
28 406 -407 -492 0
28 406 407 492 0
-28 -406 0
-28 -407 492 0
-28 407 -492 0
29 30 -365 0
29 32 -381 0
29 -365 -381 0
29 30 32 0
-29 -32 365 0
-29 -30 381 0
30 31 -382 0
-30 382 0
-30 -31 0
31 -427 -476 0
31 427 476 0
-31 427 -476 0
-31 -427 476 0
32 33 -366 0
-32 366 0
-32 -33 0
33 -419 -460 0
33 419 460 0
-33 419 -460 0
-33 -419 460 0
34 35 -37 489 0
34 35 37 -489 0
34 35 489 -490 0
-34 -35 0
-34 -37 -489 0
-34 37 489 490 0
35 -36 -481 0
35 36 481 482 0
-35 36 -482 0
-35 -36 481 0
-35 36 -481 0
36 -387 -388 0
36 387 388 0
-36 387 -388 0
-36 -387 388 0
37 -397 -398 0
37 397 398 0
-37 397 -398 0
-37 -397 398 0
38 39 -377 0
38 40 -385 0
38 -377 -385 0
38 39 40 0
-38 -40 377 0
-38 -39 385 0
39 386 -429 -480 0
39 386 429 480 0
-39 -386 0
-39 -429 480 0
-39 429 -480 0
40 41 -378 0
-40 378 0
-40 -41 0
41 -425 -472 0
41 425 472 0
-41 425 -472 0
-41 -425 472 0
42 -43 -49 -55 -60 0
-42 60 0
-42 43 0
-42 55 0
-42 49 0
43 44 45 -46 0
43 45 -46 471 0
-43 46 0
-43 -45 0
-43 -44 -471 0
44 377 378 0
-44 -377 0
-44 -378 0
45 376 468 469 0
-45 -376 0
-45 -469 0
-45 -468 0
46 47 -468 0
46 47 48 0
46 47 -467 0
-46 -47 0
-46 -48 467 468 0
47 373 466 467 0
47 374 466 467 0
-47 -467 0
-47 -466 0
-47 -373 -374 0
48 373 -374 0
-48 -373 0
-48 374 0
49 50 -52 492 0
49 50 51 -52 0
-49 52 0
-49 -50 0
-49 -51 -492 0
50 360 452 453 0
-50 -360 0
-50 -453 0
-50 -452 0
51 -343 -344 0
-51 343 0
-51 344 0
52 53 -473 0
52 53 -54 0
52 53 -472 0
-52 -53 0
-52 54 472 473 0
53 -377 -378 -471 0
53 -377 -378 -470 0
-53 377 0
-53 378 0
-53 470 471 0
54 -379 -380 0
-54 379 0
-54 380 0
55 -56 58 444 0
55 -56 58 59 0
-55 56 0
-55 -58 0
-55 -59 -444 0
56 57 -367 0
56 57 -460 0
56 57 -461 0
-56 -57 0
-56 367 460 461 0
57 353 446 447 0
57 354 446 447 0
-57 -447 0
-57 -446 0
-57 -353 -354 0
58 -375 -376 -468 0
-58 375 0
-58 376 0
-58 468 0
59 -351 -352 0
-59 351 0
-59 352 0
60 61 62 -63 0
60 62 -63 466 0
-60 63 0
-60 -62 0
-60 -61 -466 0
61 -373 -374 0
-61 373 0
-61 374 0
62 351 444 445 0
62 352 444 445 0
-62 -445 0
-62 -444 0
-62 -351 -352 0
63 393 -394 0
63 -393 394 0
63 394 487 0
63 -394 486 0
-63 393 394 -487 0
-63 -393 -394 -486 0
64 -65 -69 -71 -73 0
-64 73 0
-64 65 0
-64 71 0
-64 69 0
-14 65 -66 68 0
65 -66 68 491 0
-65 66 0
-65 -68 0
14 -65 -491 0
66 67 457 0
66 67 456 458 0
-66 -67 0
-66 -457 -458 0
-66 -456 -457 0
67 369 462 463 0
67 370 462 463 0
-67 -463 0
-67 -462 0
-67 -369 -370 0
68 -484 -485 0
68 -485 -486 0
-68 485 0
-68 484 486 0
69 70 475 0
69 70 474 476 0
-69 -70 0
-69 -475 -476 0
-69 -474 -475 0
70 -480 -481 0
70 -481 -482 0
-70 481 0
-70 480 482 0
71 72 453 0
71 72 452 454 0
-71 -72 0
-71 -453 -454 0
-71 -452 -453 0
72 -450 -451 0
72 -451 -452 0
-72 451 0
-72 450 452 0
73 -74 -76 -78 -80 0
-73 80 0
-73 74 0
-73 78 0
-73 76 0
74 75 463 0
74 75 462 464 0
-74 -75 0
-74 -463 -464 0
-74 -462 -463 0
75 383 476 477 0
-75 -383 0
-75 -477 0
-75 -476 0
76 77 -384 0
76 77 -476 0
76 77 -477 0
-76 -77 0
-76 384 476 477 0
77 -359 -360 -452 0
-77 359 0
-77 360 0
-77 452 0
78 79 483 0
78 79 482 484 0
-78 -79 0
-78 -483 -484 0
-78 -482 -483 0
79 -486 -487 0
79 -487 -488 0
-79 487 0
-79 486 488 0
80 81 384 0
80 81 476 0
80 81 383 0
-80 -81 0
-80 -383 -384 -476 0
81 389 -390 483 484 0
-81 390 0
-81 -484 0
-81 -389 0
-81 -483 0
82 -83 -90 -94 -99 0
-82 99 0
-82 83 0
-82 94 0
-82 90 0
83 84 -88 488 0
83 84 87 -88 0
-83 88 0
-83 -84 0
-83 -87 -488 0
84 86 454 455 0
84 -85 86 455 0
-84 -86 0
-84 -455 0
-84 85 -454 0
85 -361 456 0
85 -362 456 0
-85 -456 0
-85 361 362 0
86 -361 -362 0
-86 361 0
-86 362 0
87 395 -396 434 0
87 -395 396 434 0
-87 -434 0
-87 395 396 0
-87 -395 -396 0
88 89 455 0
-85 88 89 454 0
-88 -89 0
85 -88 -455 0
-88 -454 -455 0
13 89 -401 -402 0
13 89 401 402 0
-13 -89 0
-89 -401 402 0
-89 401 -402 0
90 -91 -438 439 0
90 -91 93 -439 0
90 -91 -93 439 0
-90 91 0
-90 -93 -439 0
-90 93 438 439 0
91 92 465 0
91 92 464 466 0
-91 -92 0
-91 -465 -466 0
-91 -464 -465 0
92 -367 -368 -460 0
-92 367 0
-92 368 0
-92 460 0
93 -345 -346 0
-93 345 0
-93 346 0
94 -95 98 482 0
94 -95 97 98 0
-94 95 0
-94 -98 0
-94 -97 -482 0
54 95 96 0
95 446 472 0
95 96 472 0
54 95 446 0
-54 -95 -472 0
-95 -96 -446 0
96 -353 -354 0
-96 353 0
-96 354 0
97 -389 -390 0
-97 389 0
-97 390 0
98 -363 -364 -456 0
-98 363 0
-98 364 0
-98 456 0
99 -102 -105 -353 0
99 100 -102 -105 0
-99 105 0
-99 102 0
-99 -100 353 0
100 101 -354 0
-100 354 0
-100 -101 0
101 -413 -448 0
101 413 448 0
-101 413 -448 0
-101 -413 448 0
102 103 104 0
102 474 478 0
102 104 478 0
102 103 474 0
-102 -103 -478 0
-102 -104 -474 0
103 -385 -386 0
-103 385 0
-103 386 0
104 -381 -382 0
-104 381 0
-104 382 0
105 106 -482 0
105 106 -483 0
-97 105 106 0
-105 -106 0
97 -105 482 483 0
106 -387 -388 -480 0
-106 387 0
-106 388 0
-106 480 0
107 -108 -112 0
107 109 -112 -490 0
107 -109 -112 490 0
-107 112 0
-107 108 109 490 0
-107 108 -109 -490 0
108 -399 -400 0
-108 399 0
-108 400 0
109 -110 -400 0
109 -110 -399 0
-109 110 0
-109 399 400 0
110 -111 436 0
110 111 -436 0
-110 -111 -436 0
-110 111 436 0
111 399 -400 0
111 -399 400 0
-111 -399 -400 0
-111 399 400 0
110 112 -113 133 -134 0
-110 112 -113 133 134 0
-112 -133 0
-110 -112 -134 0
-112 113 0
110 -112 134 0
113 -114 -123 128 131 0
-113 123 0
-113 -131 0
-113 114 0
-113 -128 0
114 -115 120 -369 0
114 -115 120 122 0
-114 115 0
-114 -120 0
-114 -122 369 0
115 -116 117 0
115 117 -119 0
115 117 -487 0
-115 -117 0
-115 116 119 487 0
116 -393 -394 0
-116 393 0
-116 394 0
117 -118 -474 475 0
104 117 474 475 0
-117 -475 0
-117 118 -474 0
-104 -117 474 0
118 -381 476 0
118 -382 476 0
-118 -476 0
-118 381 382 0
119 -486 -488 0
119 393 394 -486 0
-119 486 0
-119 -393 488 0
-119 -394 488 0
120 -121 470 0
44 120 -121 472 0
-120 121 0
-44 -120 -470 0
-120 -470 -472 0
121 377 471 0
121 378 471 0
-121 -471 0
-121 -377 -378 0
122 370 -421 -464 0
122 370 421 464 0
-122 -370 0
-122 -421 464 0
-122 421 -464 0
123 125 438 0
93 123 124 125 0
-123 -125 0
-123 -124 -438 0
-93 -123 -438 0
124 -345 440 0
124 -346 440 0
-124 -440 0
-124 345 346 0
125 127 458 459 0
125 -126 -458 459 0
-125 -459 0
-125 -127 458 0
-125 126 -458 0
126 -365 460 0
126 -366 460 0
-126 -460 0
-126 365 366 0
127 -365 -366 0
-127 365 0
-127 366 0
128 130 442 443 0
128 -129 -442 443 0
-128 -443 0
-128 -130 442 0
-128 129 -442 0
129 -349 444 0
129 -350 444 0
-129 -444 0
-129 349 350 0
130 -349 -350 0
-130 349 0
-130 350 0
131 -132 369 0
-131 -369 0
-131 132 0
132 -370 421 -464 0
132 -370 -421 464 0
-132 370 0
-132 -421 -464 0
-132 421 464 0
133 395 396 488 0
133 396 -434 488 0
133 395 -434 488 0
-133 -395 -396 0
-133 -396 434 0
-133 -488 0
-133 -395 434 0
134 401 491 0
134 402 491 0
-134 -491 0
-134 -401 -402 0
135 136 -138 141 -142 0
135 -136 -138 -141 -142 0
-135 142 0
-135 -136 141 0
-135 138 0
-135 136 -141 0
136 -137 -434 0
136 137 434 0
-136 -137 434 0
-136 137 -434 0
137 395 -396 0
137 -395 396 0
-137 -395 -396 0
-137 395 396 0
138 140 385 0
138 139 140 -386 0
138 -139 140 386 0
-138 -140 0
-138 139 -385 386 0
-138 -139 -385 -386 0
139 -429 -480 0
139 429 480 0
-139 429 -480 0
-139 -429 480 0
9 140 -349 350 0
-9 140 -349 -350 0
-140 349 0
9 -140 -350 0
-9 -140 350 0
141 397 489 0
141 398 489 0
-141 -489 0
-141 -397 -398 0
142 -143 -153 156 158 0
-142 153 0
-142 -158 0
-142 143 0
-142 -156 0
143 -144 147 -150 0
143 -144 147 -480 0
-143 144 0
-143 -147 0
-143 150 480 0
144 146 361 0
144 145 146 -362 0
144 -145 146 362 0
-144 -146 0
-144 145 -361 362 0
-144 -145 -361 -362 0
145 -417 -456 0
145 417 456 0
-145 417 -456 0
-145 -417 456 0
41 146 -377 378 0
-41 146 -377 -378 0
-146 377 0
41 -146 -378 0
-41 -146 378 0
147 -148 464 0
147 -149 463 464 0
-147 -464 0
-147 148 -463 0
-147 148 149 0
148 371 465 0
148 372 465 0
-148 -465 0
-148 -371 -372 0
149 369 -370 0
149 -369 370 0
-149 -369 -370 0
-149 369 370 0
150 -151 -479 0
150 152 -481 0
150 -479 -481 0
150 -151 152 0
-150 -152 479 0
-150 151 481 0
151 -387 -388 0
-151 387 0
-151 388 0
152 385 -386 0
152 -385 386 0
-152 -385 -386 0
-152 385 386 0
153 155 393 0
153 154 155 -394 0
153 -154 155 394 0
-153 -155 0
-153 154 -393 394 0
-153 -154 -393 -394 0
154 -433 -488 0
154 433 488 0
-154 433 -488 0
-154 -433 488 0
31 155 -381 382 0
-31 155 -381 -382 0
-155 381 0
31 -155 -382 0
-31 -155 382 0
156 157 -369 370 0
156 -157 -369 -370 0
-156 369 0
-156 157 -370 0
-156 -157 370 0
157 -421 -464 0
157 421 464 0
-157 421 -464 0
-157 -421 464 0
33 158 -365 366 0
-33 158 -365 -366 0
-158 365 0
33 -158 -366 0
-33 -158 366 0
159 -160 -188 -214 -245 0
-159 245 0
-159 160 0
-159 214 0
-159 188 0
160 -161 -169 -176 -182 0
-160 182 0
-160 161 0
-160 176 0
-160 169 0
161 162 163 -166 0
161 163 -165 -166 0
-161 166 0
-161 -163 0
-161 -162 165 0
162 397 -398 0
-162 -397 0
-162 398 0
163 164 477 478 0
-163 -477 0
-163 -164 0
-163 -478 0
164 -383 -384 0
164 383 384 0
-164 383 -384 0
-164 -383 384 0
165 -435 -490 0
165 435 490 0
-165 435 -490 0
-165 -435 490 0
166 167 168 0
9 166 445 0
9 166 168 0
166 167 445 0
-9 -166 -167 0
-166 -168 -445 0
167 349 350 0
-167 -349 0
-167 -350 0
168 -351 -352 0
168 351 352 0
-168 351 -352 0
-168 -351 352 0
169 170 -172 463 0
-149 169 170 -172 0
-169 172 0
-169 -170 0
149 -169 -463 0
170 171 461 462 0
-170 -461 0
-170 -171 0
-170 -462 0
171 -367 -368 0
171 367 368 0
-171 367 -368 0
-171 -367 368 0
172 174 175 0
164 172 173 0
172 173 175 0
164 172 174 0
-172 -173 -174 0
-164 -172 -175 0
173 -432 -486 0
173 432 486 0
-173 432 -486 0
-173 -432 486 0
174 -391 -392 0
174 391 392 0
-174 391 -392 0
-174 -391 392 0
175 -428 -478 0
175 428 478 0
-175 428 -478 0
-175 -428 478 0
176 178 -179 451 0
176 -177 178 -179 0
-176 179 0
-176 -178 0
-176 177 -451 0
177 357 -358 0
177 -357 358 0
-177 -357 -358 0
-177 357 358 0
178 -349 -350 -443 0
178 349 350 -443 0
-178 443 0
-178 -349 350 0
-178 349 -350 0
179 180 181 0
31 179 467 0
31 179 181 0
179 180 467 0
-31 -179 -180 0
-179 -181 -467 0
180 381 382 0
-180 -381 0
-180 -382 0
181 -373 -374 0
181 373 374 0
-181 373 -374 0
-181 -373 374 0
-124 182 -183 186 0
182 -183 186 439 0
-182 183 0
-182 -186 0
124 -182 -439 0
145 -177 183 0
183 184 185 0
145 183 185 0
-177 183 184 0
-145 -183 -184 0
177 -183 -185 0
184 361 362 0
-184 -361 0
-184 -362 0
185 -415 -452 0
185 415 452 0
-185 415 -452 0
-185 -415 452 0
186 187 453 454 0
-186 -453 0
-186 -187 0
-186 -454 0
187 -359 -360 0
187 359 360 0
-187 359 -360 0
-187 -359 360 0
188 -189 -196 -203 -208 0
-188 208 0
-188 189 0
-188 203 0
-188 196 0
165 189 190 -193 0
37 189 190 -193 0
-189 193 0
-189 -190 0
-37 -165 -189 0
190 -191 -192 0
-190 191 0
-190 192 0
191 -371 -372 0
191 371 372 0
-191 371 -372 0
-191 -371 372 0
192 -422 -466 0
192 422 466 0
-192 422 -466 0
-192 -422 466 0
193 194 483 0
193 194 -389 390 0
193 194 389 -390 0
-193 -194 0
-193 389 390 -483 0
-193 -389 -390 -483 0
194 -195 -347 -348 0
194 -195 347 348 0
-194 195 0
-194 -347 348 0
-194 347 -348 0
195 -410 -442 0
195 410 442 0
-195 410 -442 0
-195 -410 442 0
168 196 -197 202 0
196 -197 201 202 0
-196 197 0
-196 -202 0
-168 -196 -201 0
197 199 -200 0
48 197 198 0
197 198 -200 0
48 197 199 0
-197 -198 -199 0
-48 -197 200 0
198 -379 -380 0
198 379 380 0
-198 379 -380 0
-198 -379 380 0
199 -426 -474 0
199 426 474 0
-199 426 -474 0
-199 -426 474 0
200 -423 -468 0
200 423 468 0
-200 423 -468 0
-200 -423 468 0
201 -412 -446 0
201 412 446 0
-201 412 -446 0
-201 -412 446 0
145 202 361 -362 0
-202 -361 0
-202 362 0
-145 -202 0
203 204 -205 -207 0
203 204 206 -207 0
-203 -204 0
-203 207 0
-203 205 -206 0
-101 204 353 354 0
101 -204 0
-204 -354 0
-204 -353 0
205 -414 -450 0
205 414 450 0
-205 414 -450 0
-205 -414 450 0
206 -355 356 0
-206 355 0
-206 -356 0
171 207 485 0
174 207 461 0
171 174 207 0
207 461 485 0
-171 -207 -461 0
-174 -207 -485 0
208 209 -210 212 0
208 -210 212 -213 0
-208 210 0
-208 -212 0
-208 -209 213 0
209 -387 388 0
-209 387 0
-209 -388 0
210 211 -485 0
210 211 -486 0
-174 210 211 0
-210 -211 0
174 -210 485 486 0
211 343 -344 438 493 0
211 -343 344 438 493 0
-211 -438 0
-211 343 344 0
-211 -493 0
-211 -343 -344 0
173 212 -391 392 0
-212 391 0
-173 -212 0
-212 -392 0
213 -430 -482 0
213 430 482 0
-213 430 -482 0
-213 -430 482 0
214 215 218 -220 -223 0
-214 -215 0
-214 223 0
-214 220 0
-214 -218 0
215 -216 448 0
215 -217 447 448 0
-215 -448 0
-215 216 -447 0
-215 216 217 0
216 355 449 0
216 356 449 0
-216 -449 0
-216 -355 -356 0
217 353 -354 0
217 -353 354 0
-217 -353 -354 0
-217 353 354 0
218 -440 -441 0
15 218 -441 0
15 218 219 440 0
-218 -440 441 0
-15 -218 440 0
-218 -219 441 0
219 -347 -348 0
-219 347 0
-219 348 0
220 221 353 0
101 220 221 -354 0
-101 220 221 354 0
-220 -221 0
101 -220 -353 354 0
-101 -220 -353 -354 0
221 222 -405 406 0
221 -222 -405 -406 0
-221 405 0
-221 222 -406 0
-221 -222 406 0
222 -407 -492 0
222 407 492 0
-222 407 -492 0
-222 -407 492 0
223 -224 -230 -236 -241 0
-223 241 0
-223 224 0
-223 236 0
-223 230 0
224 225 226 -228 0
205 224 226 -228 0
-224 228 0
-224 -226 0
-205 -224 -225 0
225 -355 -356 0
225 355 356 0
-225 355 -356 0
-225 -355 356 0
226 227 -375 376 0
-226 375 0
-226 -227 0
-226 -376 0
227 -424 -470 0
227 424 470 0
-227 424 -470 0
-227 -424 470 0
228 229 358 0
228 229 -357 0
-185 228 229 0
-228 -229 0
185 -228 357 -358 0
27 229 -343 344 0
-229 343 0
-27 -229 0
-229 -344 0
230 231 232 -234 0
-175 230 232 -234 0
-230 234 0
-230 -232 0
175 -230 -231 0
231 383 -384 0
-231 -383 0
-231 384 0
232 233 469 470 0
-232 -469 0
-232 -233 0
-232 -470 0
233 -375 -376 0
233 375 376 0
-233 375 -376 0
-233 -375 376 0
233 234 235 0
187 227 234 0
227 234 235 0
187 233 234 0
-227 -233 -234 0
-187 -234 -235 0
235 -416 -454 0
235 416 454 0
-235 416 -454 0
-235 -416 454 0
-192 236 -238 240 0
236 237 -238 240 0
-236 238 0
-236 -240 0
192 -236 -237 0
237 371 -372 0
-237 -371 0
-237 372 0
-217 238 239 0
33 238 447 0
33 -217 238 0
238 239 447 0
-33 -238 -239 0
217 -238 -447 0
239 365 366 0
-239 -365 0
-239 -366 0
168 240 445 446 0
-240 -445 0
-168 -240 0
-240 -446 0
191 241 -242 244 0
241 -242 244 465 0
-241 242 0
-241 -244 0
-191 -241 -465 0
242 243 394 0
242 243 -393 0
-154 242 243 0
-242 -243 0
154 -242 393 -394 0
243 -381 -382 -475 0
243 381 382 -475 0
-243 475 0
-243 -381 382 0
-243 381 -382 0
244 -365 -366 -459 0
244 365 366 -459 0
-244 459 0
-244 -365 366 0
-244 365 -366 0
245 -246 -266 -284 -303 0
-245 303 0
-245 246 0
-245 284 0
-245 266 0
246 -247 -252 -258 -262 0
-246 262 0
-246 247 0
-246 258 0
-246 252 0
247 -248 249 250 0
247 -248 249 -251 0
-247 248 0
-247 -249 0
-247 -250 251 0
248 379 -380 0
248 379 473 0
248 -380 473 0
-199 248 -379 380 0
199 -248 -379 380 0
-248 -379 -380 -473 0
-248 379 380 -473 0
195 249 -347 348 0
-249 347 0
-195 -249 0
-249 -348 0
250 -363 364 0
-250 363 0
-250 -364 0
251 -418 -458 0
251 418 458 0
-251 418 -458 0
-251 -418 458 0
252 -253 -255 453 0
187 252 -253 -255 0
-252 255 0
-252 253 0
-187 -252 -453 0
253 490 491 0
253 254 489 0
253 254 490 0
253 489 491 0
-253 -489 -490 0
-253 -254 -491 0
254 401 402 0
-254 -401 0
-254 -402 0
255 256 457 0
-195 255 257 0
255 256 257 0
-195 255 457 0
-255 -257 -457 0
195 -255 -256 0
256 347 -348 0
-256 -347 0
-256 348 0
257 -363 -364 0
257 363 364 0
-257 363 -364 0
-257 -363 364 0
258 259 -260 479 0
-152 258 259 -260 0
-258 260 0
-258 -259 0
152 -258 -479 0
257 259 457 458 0
-259 -457 0
-257 -259 0
-259 -458 0
260 261 392 0
260 261 -391 0
-173 260 261 0
-260 -261 0
173 -260 391 -392 0
251 261 363 -364 0
-261 -363 0
-261 364 0
-251 -261 0
164 262 -263 265 0
262 -263 265 477 0
-262 263 0
-262 -265 0
-164 -262 -477 0
263 264 -473 0
263 264 -474 0
-198 263 264 0
-263 -264 0
198 -263 473 474 0
191 264 465 466 0
-264 -465 0
-191 -264 0
-264 -466 0
-233 265 -469 0
-265 469 0
233 -265 0
266 -267 -271 -276 -280 0
-266 280 0
-266 267 0
-266 276 0
-266 271 0
108 267 -268 270 0
267 -268 270 490 0
-267 268 0
-267 -270 0
-108 -267 -490 0
268 269 493 0
268 269 438 492 0
-268 -269 0
-268 -492 -493 0
-268 -438 -493 0
269 -355 -356 -448 0
-269 355 0
-269 356 0
-269 448 0
270 -458 -459 0
270 -459 -460 0
-270 459 0
-270 458 460 0
271 272 -273 275 0
271 -273 275 488 0
-271 273 0
-271 -275 0
-271 -272 -488 0
272 -395 -396 0
-272 395 0
-272 396 0
273 274 -392 0
273 274 -484 0
273 274 -485 0
-273 -274 0
-273 392 484 485 0
274 -401 -402 -491 0
-274 401 0
-274 402 0
-274 491 0
275 -460 -461 0
275 -461 -462 0
-275 461 0
-275 460 462 0
86 276 277 -278 0
276 277 -278 454 0
-276 278 0
-276 -277 0
-86 -276 -454 0
277 -468 -469 0
277 -469 -470 0
-277 469 0
-277 468 470 0
278 279 467 0
278 279 466 468 0
-278 -279 0
-278 -467 -468 0
-278 -466 -467 0
279 -472 -473 0
279 -473 -474 0
-279 473 0
-279 472 474 0
116 280 281 -282 0
280 281 -282 487 0
-280 282 0
-280 -281 0
-116 -280 -487 0
281 385 478 479 0
281 386 478 479 0
-281 -479 0
-281 -478 0
-281 -385 -386 0
130 282 283 0
282 442 462 0
130 282 462 0
282 283 442 0
-282 -283 -462 0
-130 -282 -442 0
283 -369 -370 0
-283 369 0
-283 370 0
284 -285 -294 -296 -298 0
-284 298 0
-284 285 0
-284 296 0
-284 294 0
285 -286 -289 -290 -292 0
-285 292 0
-285 286 0
-285 290 0
-285 289 0
286 288 -456 0
286 288 -457 0
286 -287 288 0
-286 -288 0
-286 287 456 457 0
287 -363 -364 0
-287 363 0
-287 364 0
288 343 492 493 0
288 344 492 493 0
-288 -493 0
-288 -492 0
-288 -343 -344 0
86 289 458 0
127 289 455 0
86 127 289 0
289 455 458 0
-86 -289 -455 0
-127 -289 -458 0
290 291 445 0
290 291 444 446 0
-290 -291 0
-290 -445 -446 0
-290 -444 -445 0
291 -371 -372 -464 0
-291 371 0
-291 372 0
-291 464 0
292 293 449 0
292 293 448 450 0
-292 -293 0
-292 -449 -450 0
-292 -448 -449 0
293 -442 -443 0
293 -443 -444 0
-293 443 0
-293 442 444 0
294 295 477 0
294 295 476 478 0
-294 -295 0
-294 -477 -478 0
-294 -476 -477 0
295 -470 -471 0
295 -471 -472 0
-295 471 0
-295 470 472 0
296 297 -368 0
296 297 -460 0
296 297 -461 0
-296 -297 0
-296 368 460 461 0
297 -446 -447 0
297 -447 -448 0
-297 447 0
-297 446 448 0
298 299 300 -301 0
298 300 -301 450 0
-298 301 0
-298 -300 0
-298 -299 -450 0
299 -357 -358 0
-299 357 0
-299 358 0
300 -391 -392 -484 0
-300 391 0
-300 392 0
-300 484 0
301 302 479 0
301 302 478 480 0
-301 -302 0
-301 -479 -480 0
-301 -478 -479 0
302 -347 -348 -440 0
-302 347 0
-302 348 0
-302 440 0
303 -304 -307 -311 -320 0
-303 320 0
-303 304 0
-303 311 0
-303 307 0
304 -305 449 -450 0
225 304 -305 -449 0
-225 304 -305 449 0
-304 305 0
-225 -304 -449 0
225 -304 449 450 0
305 306 376 0
305 306 -375 0
-227 305 306 0
-305 -306 0
227 -305 375 -376 0
205 306 355 -356 0
-306 -355 0
-306 356 0
-205 -306 0
307 308 309 -310 0
-235 307 309 -310 0
-307 310 0
-307 -309 0
235 -307 -308 0
308 359 -360 0
-308 -359 0
-308 360 0
165 309 -397 398 0
-309 397 0
-165 -309 0
-309 -398 0
44 181 310 0
41 200 310 0
44 200 310 0
41 181 310 0
-41 -44 -310 0
-181 -200 -310 0
311 -312 -314 -316 -318 0
-311 318 0
-311 312 0
-311 316 0
-311 314 0
257 312 313 0
171 251 312 0
251 312 313 0
171 257 312 0
-251 -257 -312 0
-171 -312 -313 0
313 -420 -462 0
313 420 462 0
-313 420 -462 0
-313 -420 462 0
314 315 -368 0
-313 314 315 0
314 315 367 0
-314 -315 0
313 -314 -367 368 0
192 315 -371 372 0
-315 371 0
-192 -315 0
-315 -372 0
316 317 368 0
316 317 -367 0
-313 316 317 0
-316 -317 0
313 -316 367 -368 0
199 317 379 -380 0
-317 -379 0
-317 380 0
-199 -317 0
318 319 -360 0
-235 318 319 0
318 319 359 0
-318 -319 0
235 -318 -359 360 0
201 319 -351 352 0
-319 351 0
-201 -319 0
-319 -352 0
320 -321 -327 -332 -338 0
-320 338 0
-320 321 0
-320 332 0
-320 327 0
213 321 -322 326 0
36 321 -322 326 0
-321 322 0
-321 -326 0
-36 -213 -321 0
322 323 324 0
-175 322 -325 0
322 324 -325 0
-175 322 323 0
175 -322 -324 0
-322 -323 325 0
323 389 -390 0
-323 -389 0
-323 390 0
324 -383 384 0
-324 383 0
-324 -384 0
325 -431 -484 0
325 431 484 0
-325 431 -484 0
-325 -431 484 0
-14 326 -401 402 491 0
-14 326 401 -402 491 0
14 -326 0
-326 401 402 0
-326 -491 0
-326 -401 -402 0
325 327 -328 331 0
97 327 -328 331 0
-327 328 0
-327 -331 0
-97 -325 -327 0
328 329 330 0
-27 -325 328 0
-325 328 330 0
-27 328 329 0
27 -328 -330 0
325 -328 -329 0
329 -389 390 0
-329 389 0
-329 -390 0
330 343 -344 0
-330 -343 0
-330 344 0
201 331 351 -352 0
-331 -351 0
-331 352 0
-201 -331 0
332 333 335 -337 0
332 333 336 -337 0
-332 -333 0
-332 337 0
-332 -335 -336 0
333 -334 450 0
333 -334 -358 452 0
-333 334 0
-333 -450 -452 0
-333 358 -450 0
334 357 451 0
334 358 451 0
-334 -451 0
-334 -357 -358 0
335 345 -346 0
335 -345 346 0
-335 -345 -346 0
-335 345 346 0
336 409 -440 0
336 -409 440 0
-336 -409 -440 0
-336 409 440 0
-200 -336 337 0
22 -335 337 0
-200 -335 337 0
22 -336 337 0
335 336 -337 0
-22 200 -337 0
154 338 340 -341 0
338 339 340 -341 0
-338 341 0
-338 -340 0
-154 -338 -339 0
339 393 394 0
-339 -393 0
-339 -394 0
-325 340 389 390 0
325 -340 0
-340 -390 0
-340 -389 0
341 342 -358 0
-185 341 342 0
341 342 357 0
-341 -342 0
185 -341 -357 358 0
213 342 387 -388 0
-342 -387 0
-342 388 0
-213 -342 0
1 -2 0
-1 2 0
494 0

